 &control
    calculation     = 'bands'
    prefix          = 'si'
    restart_mode    = 'from_scratch'
    pseudo_dir      = '~/PP/all/'
    outdir          = './temp/'
!    verbosity       = 'high'
 /
 &system
    ibrav     = 2
    celldm(1) = 10.26328
    nat       = 2
    ntyp      = 1
    ecutwfc   = 70.0
    nbnd = 4
 /
 &electrons
    diagonalization = 'david'
    mixing_beta     = 0.7
    conv_thr        = 1.0d-10
 /
ATOMIC_SPECIES
 Si  28.0855  Si.dojo.sr.ONCVv0.4.lda.standard.upf
ATOMIC_POSITIONS crystal
 Si  0.125   0.125   0.125
 Si -0.125  -0.125  -0.125
K_POINTS crystal
216
  0.000000000000  0.000000000000  0.000000000000  4.62962963e-03
  0.000000000000  0.000000000000  0.166666666667  4.62962963e-03
  0.000000000000  0.000000000000  0.333333333333  4.62962963e-03
  0.000000000000  0.000000000000  0.500000000000  4.62962963e-03
  0.000000000000  0.000000000000  0.666666666667  4.62962963e-03
  0.000000000000  0.000000000000  0.833333333333  4.62962963e-03
  0.000000000000  0.166666666667  0.000000000000  4.62962963e-03
  0.000000000000  0.166666666667  0.166666666667  4.62962963e-03
  0.000000000000  0.166666666667  0.333333333333  4.62962963e-03
  0.000000000000  0.166666666667  0.500000000000  4.62962963e-03
  0.000000000000  0.166666666667  0.666666666667  4.62962963e-03
  0.000000000000  0.166666666667  0.833333333333  4.62962963e-03
  0.000000000000  0.333333333333  0.000000000000  4.62962963e-03
  0.000000000000  0.333333333333  0.166666666667  4.62962963e-03
  0.000000000000  0.333333333333  0.333333333333  4.62962963e-03
  0.000000000000  0.333333333333  0.500000000000  4.62962963e-03
  0.000000000000  0.333333333333  0.666666666667  4.62962963e-03
  0.000000000000  0.333333333333  0.833333333333  4.62962963e-03
  0.000000000000  0.500000000000  0.000000000000  4.62962963e-03
  0.000000000000  0.500000000000  0.166666666667  4.62962963e-03
  0.000000000000  0.500000000000  0.333333333333  4.62962963e-03
  0.000000000000  0.500000000000  0.500000000000  4.62962963e-03
  0.000000000000  0.500000000000  0.666666666667  4.62962963e-03
  0.000000000000  0.500000000000  0.833333333333  4.62962963e-03
  0.000000000000  0.666666666667  0.000000000000  4.62962963e-03
  0.000000000000  0.666666666667  0.166666666667  4.62962963e-03
  0.000000000000  0.666666666667  0.333333333333  4.62962963e-03
  0.000000000000  0.666666666667  0.500000000000  4.62962963e-03
  0.000000000000  0.666666666667  0.666666666667  4.62962963e-03
  0.000000000000  0.666666666667  0.833333333333  4.62962963e-03
  0.000000000000  0.833333333333  0.000000000000  4.62962963e-03
  0.000000000000  0.833333333333  0.166666666667  4.62962963e-03
  0.000000000000  0.833333333333  0.333333333333  4.62962963e-03
  0.000000000000  0.833333333333  0.500000000000  4.62962963e-03
  0.000000000000  0.833333333333  0.666666666667  4.62962963e-03
  0.000000000000  0.833333333333  0.833333333333  4.62962963e-03
  0.166666666667  0.000000000000  0.000000000000  4.62962963e-03
  0.166666666667  0.000000000000  0.166666666667  4.62962963e-03
  0.166666666667  0.000000000000  0.333333333333  4.62962963e-03
  0.166666666667  0.000000000000  0.500000000000  4.62962963e-03
  0.166666666667  0.000000000000  0.666666666667  4.62962963e-03
  0.166666666667  0.000000000000  0.833333333333  4.62962963e-03
  0.166666666667  0.166666666667  0.000000000000  4.62962963e-03
  0.166666666667  0.166666666667  0.166666666667  4.62962963e-03
  0.166666666667  0.166666666667  0.333333333333  4.62962963e-03
  0.166666666667  0.166666666667  0.500000000000  4.62962963e-03
  0.166666666667  0.166666666667  0.666666666667  4.62962963e-03
  0.166666666667  0.166666666667  0.833333333333  4.62962963e-03
  0.166666666667  0.333333333333  0.000000000000  4.62962963e-03
  0.166666666667  0.333333333333  0.166666666667  4.62962963e-03
  0.166666666667  0.333333333333  0.333333333333  4.62962963e-03
  0.166666666667  0.333333333333  0.500000000000  4.62962963e-03
  0.166666666667  0.333333333333  0.666666666667  4.62962963e-03
  0.166666666667  0.333333333333  0.833333333333  4.62962963e-03
  0.166666666667  0.500000000000  0.000000000000  4.62962963e-03
  0.166666666667  0.500000000000  0.166666666667  4.62962963e-03
  0.166666666667  0.500000000000  0.333333333333  4.62962963e-03
  0.166666666667  0.500000000000  0.500000000000  4.62962963e-03
  0.166666666667  0.500000000000  0.666666666667  4.62962963e-03
  0.166666666667  0.500000000000  0.833333333333  4.62962963e-03
  0.166666666667  0.666666666667  0.000000000000  4.62962963e-03
  0.166666666667  0.666666666667  0.166666666667  4.62962963e-03
  0.166666666667  0.666666666667  0.333333333333  4.62962963e-03
  0.166666666667  0.666666666667  0.500000000000  4.62962963e-03
  0.166666666667  0.666666666667  0.666666666667  4.62962963e-03
  0.166666666667  0.666666666667  0.833333333333  4.62962963e-03
  0.166666666667  0.833333333333  0.000000000000  4.62962963e-03
  0.166666666667  0.833333333333  0.166666666667  4.62962963e-03
  0.166666666667  0.833333333333  0.333333333333  4.62962963e-03
  0.166666666667  0.833333333333  0.500000000000  4.62962963e-03
  0.166666666667  0.833333333333  0.666666666667  4.62962963e-03
  0.166666666667  0.833333333333  0.833333333333  4.62962963e-03
  0.333333333333  0.000000000000  0.000000000000  4.62962963e-03
  0.333333333333  0.000000000000  0.166666666667  4.62962963e-03
  0.333333333333  0.000000000000  0.333333333333  4.62962963e-03
  0.333333333333  0.000000000000  0.500000000000  4.62962963e-03
  0.333333333333  0.000000000000  0.666666666667  4.62962963e-03
  0.333333333333  0.000000000000  0.833333333333  4.62962963e-03
  0.333333333333  0.166666666667  0.000000000000  4.62962963e-03
  0.333333333333  0.166666666667  0.166666666667  4.62962963e-03
  0.333333333333  0.166666666667  0.333333333333  4.62962963e-03
  0.333333333333  0.166666666667  0.500000000000  4.62962963e-03
  0.333333333333  0.166666666667  0.666666666667  4.62962963e-03
  0.333333333333  0.166666666667  0.833333333333  4.62962963e-03
  0.333333333333  0.333333333333  0.000000000000  4.62962963e-03
  0.333333333333  0.333333333333  0.166666666667  4.62962963e-03
  0.333333333333  0.333333333333  0.333333333333  4.62962963e-03
  0.333333333333  0.333333333333  0.500000000000  4.62962963e-03
  0.333333333333  0.333333333333  0.666666666667  4.62962963e-03
  0.333333333333  0.333333333333  0.833333333333  4.62962963e-03
  0.333333333333  0.500000000000  0.000000000000  4.62962963e-03
  0.333333333333  0.500000000000  0.166666666667  4.62962963e-03
  0.333333333333  0.500000000000  0.333333333333  4.62962963e-03
  0.333333333333  0.500000000000  0.500000000000  4.62962963e-03
  0.333333333333  0.500000000000  0.666666666667  4.62962963e-03
  0.333333333333  0.500000000000  0.833333333333  4.62962963e-03
  0.333333333333  0.666666666667  0.000000000000  4.62962963e-03
  0.333333333333  0.666666666667  0.166666666667  4.62962963e-03
  0.333333333333  0.666666666667  0.333333333333  4.62962963e-03
  0.333333333333  0.666666666667  0.500000000000  4.62962963e-03
  0.333333333333  0.666666666667  0.666666666667  4.62962963e-03
  0.333333333333  0.666666666667  0.833333333333  4.62962963e-03
  0.333333333333  0.833333333333  0.000000000000  4.62962963e-03
  0.333333333333  0.833333333333  0.166666666667  4.62962963e-03
  0.333333333333  0.833333333333  0.333333333333  4.62962963e-03
  0.333333333333  0.833333333333  0.500000000000  4.62962963e-03
  0.333333333333  0.833333333333  0.666666666667  4.62962963e-03
  0.333333333333  0.833333333333  0.833333333333  4.62962963e-03
  0.500000000000  0.000000000000  0.000000000000  4.62962963e-03
  0.500000000000  0.000000000000  0.166666666667  4.62962963e-03
  0.500000000000  0.000000000000  0.333333333333  4.62962963e-03
  0.500000000000  0.000000000000  0.500000000000  4.62962963e-03
  0.500000000000  0.000000000000  0.666666666667  4.62962963e-03
  0.500000000000  0.000000000000  0.833333333333  4.62962963e-03
  0.500000000000  0.166666666667  0.000000000000  4.62962963e-03
  0.500000000000  0.166666666667  0.166666666667  4.62962963e-03
  0.500000000000  0.166666666667  0.333333333333  4.62962963e-03
  0.500000000000  0.166666666667  0.500000000000  4.62962963e-03
  0.500000000000  0.166666666667  0.666666666667  4.62962963e-03
  0.500000000000  0.166666666667  0.833333333333  4.62962963e-03
  0.500000000000  0.333333333333  0.000000000000  4.62962963e-03
  0.500000000000  0.333333333333  0.166666666667  4.62962963e-03
  0.500000000000  0.333333333333  0.333333333333  4.62962963e-03
  0.500000000000  0.333333333333  0.500000000000  4.62962963e-03
  0.500000000000  0.333333333333  0.666666666667  4.62962963e-03
  0.500000000000  0.333333333333  0.833333333333  4.62962963e-03
  0.500000000000  0.500000000000  0.000000000000  4.62962963e-03
  0.500000000000  0.500000000000  0.166666666667  4.62962963e-03
  0.500000000000  0.500000000000  0.333333333333  4.62962963e-03
  0.500000000000  0.500000000000  0.500000000000  4.62962963e-03
  0.500000000000  0.500000000000  0.666666666667  4.62962963e-03
  0.500000000000  0.500000000000  0.833333333333  4.62962963e-03
  0.500000000000  0.666666666667  0.000000000000  4.62962963e-03
  0.500000000000  0.666666666667  0.166666666667  4.62962963e-03
  0.500000000000  0.666666666667  0.333333333333  4.62962963e-03
  0.500000000000  0.666666666667  0.500000000000  4.62962963e-03
  0.500000000000  0.666666666667  0.666666666667  4.62962963e-03
  0.500000000000  0.666666666667  0.833333333333  4.62962963e-03
  0.500000000000  0.833333333333  0.000000000000  4.62962963e-03
  0.500000000000  0.833333333333  0.166666666667  4.62962963e-03
  0.500000000000  0.833333333333  0.333333333333  4.62962963e-03
  0.500000000000  0.833333333333  0.500000000000  4.62962963e-03
  0.500000000000  0.833333333333  0.666666666667  4.62962963e-03
  0.500000000000  0.833333333333  0.833333333333  4.62962963e-03
  0.666666666667  0.000000000000  0.000000000000  4.62962963e-03
  0.666666666667  0.000000000000  0.166666666667  4.62962963e-03
  0.666666666667  0.000000000000  0.333333333333  4.62962963e-03
  0.666666666667  0.000000000000  0.500000000000  4.62962963e-03
  0.666666666667  0.000000000000  0.666666666667  4.62962963e-03
  0.666666666667  0.000000000000  0.833333333333  4.62962963e-03
  0.666666666667  0.166666666667  0.000000000000  4.62962963e-03
  0.666666666667  0.166666666667  0.166666666667  4.62962963e-03
  0.666666666667  0.166666666667  0.333333333333  4.62962963e-03
  0.666666666667  0.166666666667  0.500000000000  4.62962963e-03
  0.666666666667  0.166666666667  0.666666666667  4.62962963e-03
  0.666666666667  0.166666666667  0.833333333333  4.62962963e-03
  0.666666666667  0.333333333333  0.000000000000  4.62962963e-03
  0.666666666667  0.333333333333  0.166666666667  4.62962963e-03
  0.666666666667  0.333333333333  0.333333333333  4.62962963e-03
  0.666666666667  0.333333333333  0.500000000000  4.62962963e-03
  0.666666666667  0.333333333333  0.666666666667  4.62962963e-03
  0.666666666667  0.333333333333  0.833333333333  4.62962963e-03
  0.666666666667  0.500000000000  0.000000000000  4.62962963e-03
  0.666666666667  0.500000000000  0.166666666667  4.62962963e-03
  0.666666666667  0.500000000000  0.333333333333  4.62962963e-03
  0.666666666667  0.500000000000  0.500000000000  4.62962963e-03
  0.666666666667  0.500000000000  0.666666666667  4.62962963e-03
  0.666666666667  0.500000000000  0.833333333333  4.62962963e-03
  0.666666666667  0.666666666667  0.000000000000  4.62962963e-03
  0.666666666667  0.666666666667  0.166666666667  4.62962963e-03
  0.666666666667  0.666666666667  0.333333333333  4.62962963e-03
  0.666666666667  0.666666666667  0.500000000000  4.62962963e-03
  0.666666666667  0.666666666667  0.666666666667  4.62962963e-03
  0.666666666667  0.666666666667  0.833333333333  4.62962963e-03
  0.666666666667  0.833333333333  0.000000000000  4.62962963e-03
  0.666666666667  0.833333333333  0.166666666667  4.62962963e-03
  0.666666666667  0.833333333333  0.333333333333  4.62962963e-03
  0.666666666667  0.833333333333  0.500000000000  4.62962963e-03
  0.666666666667  0.833333333333  0.666666666667  4.62962963e-03
  0.666666666667  0.833333333333  0.833333333333  4.62962963e-03
  0.833333333333  0.000000000000  0.000000000000  4.62962963e-03
  0.833333333333  0.000000000000  0.166666666667  4.62962963e-03
  0.833333333333  0.000000000000  0.333333333333  4.62962963e-03
  0.833333333333  0.000000000000  0.500000000000  4.62962963e-03
  0.833333333333  0.000000000000  0.666666666667  4.62962963e-03
  0.833333333333  0.000000000000  0.833333333333  4.62962963e-03
  0.833333333333  0.166666666667  0.000000000000  4.62962963e-03
  0.833333333333  0.166666666667  0.166666666667  4.62962963e-03
  0.833333333333  0.166666666667  0.333333333333  4.62962963e-03
  0.833333333333  0.166666666667  0.500000000000  4.62962963e-03
  0.833333333333  0.166666666667  0.666666666667  4.62962963e-03
  0.833333333333  0.166666666667  0.833333333333  4.62962963e-03
  0.833333333333  0.333333333333  0.000000000000  4.62962963e-03
  0.833333333333  0.333333333333  0.166666666667  4.62962963e-03
  0.833333333333  0.333333333333  0.333333333333  4.62962963e-03
  0.833333333333  0.333333333333  0.500000000000  4.62962963e-03
  0.833333333333  0.333333333333  0.666666666667  4.62962963e-03
  0.833333333333  0.333333333333  0.833333333333  4.62962963e-03
  0.833333333333  0.500000000000  0.000000000000  4.62962963e-03
  0.833333333333  0.500000000000  0.166666666667  4.62962963e-03
  0.833333333333  0.500000000000  0.333333333333  4.62962963e-03
  0.833333333333  0.500000000000  0.500000000000  4.62962963e-03
  0.833333333333  0.500000000000  0.666666666667  4.62962963e-03
  0.833333333333  0.500000000000  0.833333333333  4.62962963e-03
  0.833333333333  0.666666666667  0.000000000000  4.62962963e-03
  0.833333333333  0.666666666667  0.166666666667  4.62962963e-03
  0.833333333333  0.666666666667  0.333333333333  4.62962963e-03
  0.833333333333  0.666666666667  0.500000000000  4.62962963e-03
  0.833333333333  0.666666666667  0.666666666667  4.62962963e-03
  0.833333333333  0.666666666667  0.833333333333  4.62962963e-03
  0.833333333333  0.833333333333  0.000000000000  4.62962963e-03
  0.833333333333  0.833333333333  0.166666666667  4.62962963e-03
  0.833333333333  0.833333333333  0.333333333333  4.62962963e-03
  0.833333333333  0.833333333333  0.500000000000  4.62962963e-03
  0.833333333333  0.833333333333  0.666666666667  4.62962963e-03
  0.833333333333  0.833333333333  0.833333333333  4.62962963e-03
