num_wann  = 4
num_bands = 4
!exclude_bands = 5-18

guiding_centres = .true.

num_iter  = 2000
conv_window = 5
conv_tol = 1.0d-12

!dis_num_iter = 3000
!dis_mix_ratio = 0.5
!dis_win_max = 25.0
!dis_froz_max = 12.5
!dis_conv_tol = 1.d-10

begin atoms_frac
 Si  0.125   0.125   0.125
 Si -0.125  -0.125  -0.125
end atoms_frac

begin projections
f=0.0, 0.0, 0.0:s:zona=3.0
f=0.5, 0.0, 0.0:s:zona=3.0
f=0.0, 0.5, 0.0:s:zona=3.0
f=0.0, 0.0, 0.5:s:zona=3.0
end projections

begin unit_cell_cart
Bohr
-5.13164 0.00000 5.13164
 0.00000 5.13164 5.13164
-5.13164 5.13164 0.00000
end unit_cell_cart

!write_hr = .false.
!write_u_matrices = .true.
use_ws_distance = .true.

bands_plot = .false.
begin kpoint_path
L      0.50000   0.50000   0.50000  GAMMA  0.00000   0.00000   0.00000
GAMMA  0.00000   0.00000   0.00000  X      0.50000   0.50000  -0.00000
X      0.50000   0.50000  -0.00000  W      0.75000   0.50000   0.25000
W      0.75000   0.50000   0.25000  K      0.75000   0.37500   0.37500
K      0.75000   0.37500   0.37500  GAMMA  0.00000   0.00000   0.00000
end kpoint_path
bands_num_points = 50
bands_plot_format = gnuplot
bands_plot_mode = s-k
bands_plot_dim = 3
mp_grid =      6      6      6
begin kpoints
  0.000000000000  0.000000000000  0.000000000000
  0.000000000000  0.000000000000  0.166666666667
  0.000000000000  0.000000000000  0.333333333333
  0.000000000000  0.000000000000  0.500000000000
  0.000000000000  0.000000000000  0.666666666667
  0.000000000000  0.000000000000  0.833333333333
  0.000000000000  0.166666666667  0.000000000000
  0.000000000000  0.166666666667  0.166666666667
  0.000000000000  0.166666666667  0.333333333333
  0.000000000000  0.166666666667  0.500000000000
  0.000000000000  0.166666666667  0.666666666667
  0.000000000000  0.166666666667  0.833333333333
  0.000000000000  0.333333333333  0.000000000000
  0.000000000000  0.333333333333  0.166666666667
  0.000000000000  0.333333333333  0.333333333333
  0.000000000000  0.333333333333  0.500000000000
  0.000000000000  0.333333333333  0.666666666667
  0.000000000000  0.333333333333  0.833333333333
  0.000000000000  0.500000000000  0.000000000000
  0.000000000000  0.500000000000  0.166666666667
  0.000000000000  0.500000000000  0.333333333333
  0.000000000000  0.500000000000  0.500000000000
  0.000000000000  0.500000000000  0.666666666667
  0.000000000000  0.500000000000  0.833333333333
  0.000000000000  0.666666666667  0.000000000000
  0.000000000000  0.666666666667  0.166666666667
  0.000000000000  0.666666666667  0.333333333333
  0.000000000000  0.666666666667  0.500000000000
  0.000000000000  0.666666666667  0.666666666667
  0.000000000000  0.666666666667  0.833333333333
  0.000000000000  0.833333333333  0.000000000000
  0.000000000000  0.833333333333  0.166666666667
  0.000000000000  0.833333333333  0.333333333333
  0.000000000000  0.833333333333  0.500000000000
  0.000000000000  0.833333333333  0.666666666667
  0.000000000000  0.833333333333  0.833333333333
  0.166666666667  0.000000000000  0.000000000000
  0.166666666667  0.000000000000  0.166666666667
  0.166666666667  0.000000000000  0.333333333333
  0.166666666667  0.000000000000  0.500000000000
  0.166666666667  0.000000000000  0.666666666667
  0.166666666667  0.000000000000  0.833333333333
  0.166666666667  0.166666666667  0.000000000000
  0.166666666667  0.166666666667  0.166666666667
  0.166666666667  0.166666666667  0.333333333333
  0.166666666667  0.166666666667  0.500000000000
  0.166666666667  0.166666666667  0.666666666667
  0.166666666667  0.166666666667  0.833333333333
  0.166666666667  0.333333333333  0.000000000000
  0.166666666667  0.333333333333  0.166666666667
  0.166666666667  0.333333333333  0.333333333333
  0.166666666667  0.333333333333  0.500000000000
  0.166666666667  0.333333333333  0.666666666667
  0.166666666667  0.333333333333  0.833333333333
  0.166666666667  0.500000000000  0.000000000000
  0.166666666667  0.500000000000  0.166666666667
  0.166666666667  0.500000000000  0.333333333333
  0.166666666667  0.500000000000  0.500000000000
  0.166666666667  0.500000000000  0.666666666667
  0.166666666667  0.500000000000  0.833333333333
  0.166666666667  0.666666666667  0.000000000000
  0.166666666667  0.666666666667  0.166666666667
  0.166666666667  0.666666666667  0.333333333333
  0.166666666667  0.666666666667  0.500000000000
  0.166666666667  0.666666666667  0.666666666667
  0.166666666667  0.666666666667  0.833333333333
  0.166666666667  0.833333333333  0.000000000000
  0.166666666667  0.833333333333  0.166666666667
  0.166666666667  0.833333333333  0.333333333333
  0.166666666667  0.833333333333  0.500000000000
  0.166666666667  0.833333333333  0.666666666667
  0.166666666667  0.833333333333  0.833333333333
  0.333333333333  0.000000000000  0.000000000000
  0.333333333333  0.000000000000  0.166666666667
  0.333333333333  0.000000000000  0.333333333333
  0.333333333333  0.000000000000  0.500000000000
  0.333333333333  0.000000000000  0.666666666667
  0.333333333333  0.000000000000  0.833333333333
  0.333333333333  0.166666666667  0.000000000000
  0.333333333333  0.166666666667  0.166666666667
  0.333333333333  0.166666666667  0.333333333333
  0.333333333333  0.166666666667  0.500000000000
  0.333333333333  0.166666666667  0.666666666667
  0.333333333333  0.166666666667  0.833333333333
  0.333333333333  0.333333333333  0.000000000000
  0.333333333333  0.333333333333  0.166666666667
  0.333333333333  0.333333333333  0.333333333333
  0.333333333333  0.333333333333  0.500000000000
  0.333333333333  0.333333333333  0.666666666667
  0.333333333333  0.333333333333  0.833333333333
  0.333333333333  0.500000000000  0.000000000000
  0.333333333333  0.500000000000  0.166666666667
  0.333333333333  0.500000000000  0.333333333333
  0.333333333333  0.500000000000  0.500000000000
  0.333333333333  0.500000000000  0.666666666667
  0.333333333333  0.500000000000  0.833333333333
  0.333333333333  0.666666666667  0.000000000000
  0.333333333333  0.666666666667  0.166666666667
  0.333333333333  0.666666666667  0.333333333333
  0.333333333333  0.666666666667  0.500000000000
  0.333333333333  0.666666666667  0.666666666667
  0.333333333333  0.666666666667  0.833333333333
  0.333333333333  0.833333333333  0.000000000000
  0.333333333333  0.833333333333  0.166666666667
  0.333333333333  0.833333333333  0.333333333333
  0.333333333333  0.833333333333  0.500000000000
  0.333333333333  0.833333333333  0.666666666667
  0.333333333333  0.833333333333  0.833333333333
  0.500000000000  0.000000000000  0.000000000000
  0.500000000000  0.000000000000  0.166666666667
  0.500000000000  0.000000000000  0.333333333333
  0.500000000000  0.000000000000  0.500000000000
  0.500000000000  0.000000000000  0.666666666667
  0.500000000000  0.000000000000  0.833333333333
  0.500000000000  0.166666666667  0.000000000000
  0.500000000000  0.166666666667  0.166666666667
  0.500000000000  0.166666666667  0.333333333333
  0.500000000000  0.166666666667  0.500000000000
  0.500000000000  0.166666666667  0.666666666667
  0.500000000000  0.166666666667  0.833333333333
  0.500000000000  0.333333333333  0.000000000000
  0.500000000000  0.333333333333  0.166666666667
  0.500000000000  0.333333333333  0.333333333333
  0.500000000000  0.333333333333  0.500000000000
  0.500000000000  0.333333333333  0.666666666667
  0.500000000000  0.333333333333  0.833333333333
  0.500000000000  0.500000000000  0.000000000000
  0.500000000000  0.500000000000  0.166666666667
  0.500000000000  0.500000000000  0.333333333333
  0.500000000000  0.500000000000  0.500000000000
  0.500000000000  0.500000000000  0.666666666667
  0.500000000000  0.500000000000  0.833333333333
  0.500000000000  0.666666666667  0.000000000000
  0.500000000000  0.666666666667  0.166666666667
  0.500000000000  0.666666666667  0.333333333333
  0.500000000000  0.666666666667  0.500000000000
  0.500000000000  0.666666666667  0.666666666667
  0.500000000000  0.666666666667  0.833333333333
  0.500000000000  0.833333333333  0.000000000000
  0.500000000000  0.833333333333  0.166666666667
  0.500000000000  0.833333333333  0.333333333333
  0.500000000000  0.833333333333  0.500000000000
  0.500000000000  0.833333333333  0.666666666667
  0.500000000000  0.833333333333  0.833333333333
  0.666666666667  0.000000000000  0.000000000000
  0.666666666667  0.000000000000  0.166666666667
  0.666666666667  0.000000000000  0.333333333333
  0.666666666667  0.000000000000  0.500000000000
  0.666666666667  0.000000000000  0.666666666667
  0.666666666667  0.000000000000  0.833333333333
  0.666666666667  0.166666666667  0.000000000000
  0.666666666667  0.166666666667  0.166666666667
  0.666666666667  0.166666666667  0.333333333333
  0.666666666667  0.166666666667  0.500000000000
  0.666666666667  0.166666666667  0.666666666667
  0.666666666667  0.166666666667  0.833333333333
  0.666666666667  0.333333333333  0.000000000000
  0.666666666667  0.333333333333  0.166666666667
  0.666666666667  0.333333333333  0.333333333333
  0.666666666667  0.333333333333  0.500000000000
  0.666666666667  0.333333333333  0.666666666667
  0.666666666667  0.333333333333  0.833333333333
  0.666666666667  0.500000000000  0.000000000000
  0.666666666667  0.500000000000  0.166666666667
  0.666666666667  0.500000000000  0.333333333333
  0.666666666667  0.500000000000  0.500000000000
  0.666666666667  0.500000000000  0.666666666667
  0.666666666667  0.500000000000  0.833333333333
  0.666666666667  0.666666666667  0.000000000000
  0.666666666667  0.666666666667  0.166666666667
  0.666666666667  0.666666666667  0.333333333333
  0.666666666667  0.666666666667  0.500000000000
  0.666666666667  0.666666666667  0.666666666667
  0.666666666667  0.666666666667  0.833333333333
  0.666666666667  0.833333333333  0.000000000000
  0.666666666667  0.833333333333  0.166666666667
  0.666666666667  0.833333333333  0.333333333333
  0.666666666667  0.833333333333  0.500000000000
  0.666666666667  0.833333333333  0.666666666667
  0.666666666667  0.833333333333  0.833333333333
  0.833333333333  0.000000000000  0.000000000000
  0.833333333333  0.000000000000  0.166666666667
  0.833333333333  0.000000000000  0.333333333333
  0.833333333333  0.000000000000  0.500000000000
  0.833333333333  0.000000000000  0.666666666667
  0.833333333333  0.000000000000  0.833333333333
  0.833333333333  0.166666666667  0.000000000000
  0.833333333333  0.166666666667  0.166666666667
  0.833333333333  0.166666666667  0.333333333333
  0.833333333333  0.166666666667  0.500000000000
  0.833333333333  0.166666666667  0.666666666667
  0.833333333333  0.166666666667  0.833333333333
  0.833333333333  0.333333333333  0.000000000000
  0.833333333333  0.333333333333  0.166666666667
  0.833333333333  0.333333333333  0.333333333333
  0.833333333333  0.333333333333  0.500000000000
  0.833333333333  0.333333333333  0.666666666667
  0.833333333333  0.333333333333  0.833333333333
  0.833333333333  0.500000000000  0.000000000000
  0.833333333333  0.500000000000  0.166666666667
  0.833333333333  0.500000000000  0.333333333333
  0.833333333333  0.500000000000  0.500000000000
  0.833333333333  0.500000000000  0.666666666667
  0.833333333333  0.500000000000  0.833333333333
  0.833333333333  0.666666666667  0.000000000000
  0.833333333333  0.666666666667  0.166666666667
  0.833333333333  0.666666666667  0.333333333333
  0.833333333333  0.666666666667  0.500000000000
  0.833333333333  0.666666666667  0.666666666667
  0.833333333333  0.666666666667  0.833333333333
  0.833333333333  0.833333333333  0.000000000000
  0.833333333333  0.833333333333  0.166666666667
  0.833333333333  0.833333333333  0.333333333333
  0.833333333333  0.833333333333  0.500000000000
  0.833333333333  0.833333333333  0.666666666667
  0.833333333333  0.833333333333  0.833333333333
end kpoints
