num_bands       = 10
num_wann        =  7
exclude_bands   = 1-4, 15-18
num_iter        = 100
conv_window = 5
conv_tol = 1.0d-12

!dis_win_max     = 38.0
dis_froz_max    = 20.0
dis_num_iter    =  100
dis_mix_ratio   = 1.0

Begin Kpoint_Path
G 0.00  0.00  0.00    X 0.50  0.50  0.00
X 0.50  0.50  0.00    W 0.50  0.75  0.25
W 0.50  0.75  0.25    L 0.00  0.50  0.00
L 0.00  0.50  0.00    G 0.00  0.00  0.00
G 0.00  0.00  0.00    K 0.00  0.50 -0.50
End Kpoint_Path

bands_plot = .true.

begin unit_cell_cart
bohr
-3.411 0.000 3.411
 0.000 3.411 3.411
-3.411 3.411 0.000
end unit_cell_cart

begin atoms_frac
Cu 0.00   0.00   0.00
end atoms_frac

begin projections
Cu:d
f=0.25,0.25,0.25:s
f=-0.25,-0.25,-0.25:s
end projections

mp_grid =      3      3      3
begin kpoints
  0.000000000000  0.000000000000  0.000000000000
  0.000000000000  0.000000000000  0.333333333333
  0.000000000000  0.000000000000  0.666666666667
  0.000000000000  0.333333333333  0.000000000000
  0.000000000000  0.333333333333  0.333333333333
  0.000000000000  0.333333333333  0.666666666667
  0.000000000000  0.666666666667  0.000000000000
  0.000000000000  0.666666666667  0.333333333333
  0.000000000000  0.666666666667  0.666666666667
  0.333333333333  0.000000000000  0.000000000000
  0.333333333333  0.000000000000  0.333333333333
  0.333333333333  0.000000000000  0.666666666667
  0.333333333333  0.333333333333  0.000000000000
  0.333333333333  0.333333333333  0.333333333333
  0.333333333333  0.333333333333  0.666666666667
  0.333333333333  0.666666666667  0.000000000000
  0.333333333333  0.666666666667  0.333333333333
  0.333333333333  0.666666666667  0.666666666667
  0.666666666667  0.000000000000  0.000000000000
  0.666666666667  0.000000000000  0.333333333333
  0.666666666667  0.000000000000  0.666666666667
  0.666666666667  0.333333333333  0.000000000000
  0.666666666667  0.333333333333  0.333333333333
  0.666666666667  0.333333333333  0.666666666667
  0.666666666667  0.666666666667  0.000000000000
  0.666666666667  0.666666666667  0.333333333333
  0.666666666667  0.666666666667  0.666666666667
end kpoints
