
&inputpp
   prefix   = 'Cu'
   outdir   = './temp'
   seedname = 'Cu'
/

