 &control
    calculation     = 'bands'
    prefix          = 'si'
    restart_mode    = 'from_scratch'
    pseudo_dir      = '~/PP/all/'
    outdir          = './temp/'
    verbosity       = 'high'
    disk_io = 'nowf'
 /
 &system
    ibrav     = 2
    celldm(1) = 10.26328
    nat       = 2
    ntyp      = 1
    ecutwfc   = 70.0
    nbnd = 18
 /
 &electrons
    diagonalization = 'david'
    mixing_beta     = 0.7
    conv_thr        = 1.0d-10
 /
ATOMIC_SPECIES
 Si  28.0855  Si.dojo.sr.ONCVv0.4.lda.standard.upf
ATOMIC_POSITIONS crystal
 Si  0.125   0.125   0.125
 Si -0.125  -0.125  -0.125
 K_POINTS crystal
         301
        0.5000000000    0.5000000000    0.5000000000    1.0
        0.4927536232    0.4927536232    0.4927536232    1.0
        0.4855072464    0.4855072464    0.4855072464    1.0
        0.4782608696    0.4782608696    0.4782608696    1.0
        0.4710144928    0.4710144928    0.4710144928    1.0
        0.4637681159    0.4637681159    0.4637681159    1.0
        0.4565217391    0.4565217391    0.4565217391    1.0
        0.4492753623    0.4492753623    0.4492753623    1.0
        0.4420289855    0.4420289855    0.4420289855    1.0
        0.4347826087    0.4347826087    0.4347826087    1.0
        0.4275362319    0.4275362319    0.4275362319    1.0
        0.4202898551    0.4202898551    0.4202898551    1.0
        0.4130434783    0.4130434783    0.4130434783    1.0
        0.4057971014    0.4057971014    0.4057971014    1.0
        0.3985507246    0.3985507246    0.3985507246    1.0
        0.3913043478    0.3913043478    0.3913043478    1.0
        0.3840579710    0.3840579710    0.3840579710    1.0
        0.3768115942    0.3768115942    0.3768115942    1.0
        0.3695652174    0.3695652174    0.3695652174    1.0
        0.3623188406    0.3623188406    0.3623188406    1.0
        0.3550724638    0.3550724638    0.3550724638    1.0
        0.3478260870    0.3478260870    0.3478260870    1.0
        0.3405797101    0.3405797101    0.3405797101    1.0
        0.3333333333    0.3333333333    0.3333333333    1.0
        0.3260869565    0.3260869565    0.3260869565    1.0
        0.3188405797    0.3188405797    0.3188405797    1.0
        0.3115942029    0.3115942029    0.3115942029    1.0
        0.3043478261    0.3043478261    0.3043478261    1.0
        0.2971014493    0.2971014493    0.2971014493    1.0
        0.2898550725    0.2898550725    0.2898550725    1.0
        0.2826086957    0.2826086957    0.2826086957    1.0
        0.2753623188    0.2753623188    0.2753623188    1.0
        0.2681159420    0.2681159420    0.2681159420    1.0
        0.2608695652    0.2608695652    0.2608695652    1.0
        0.2536231884    0.2536231884    0.2536231884    1.0
        0.2463768116    0.2463768116    0.2463768116    1.0
        0.2391304348    0.2391304348    0.2391304348    1.0
        0.2318840580    0.2318840580    0.2318840580    1.0
        0.2246376812    0.2246376812    0.2246376812    1.0
        0.2173913043    0.2173913043    0.2173913043    1.0
        0.2101449275    0.2101449275    0.2101449275    1.0
        0.2028985507    0.2028985507    0.2028985507    1.0
        0.1956521739    0.1956521739    0.1956521739    1.0
        0.1884057971    0.1884057971    0.1884057971    1.0
        0.1811594203    0.1811594203    0.1811594203    1.0
        0.1739130435    0.1739130435    0.1739130435    1.0
        0.1666666667    0.1666666667    0.1666666667    1.0
        0.1594202899    0.1594202899    0.1594202899    1.0
        0.1521739130    0.1521739130    0.1521739130    1.0
        0.1449275362    0.1449275362    0.1449275362    1.0
        0.1376811594    0.1376811594    0.1376811594    1.0
        0.1304347826    0.1304347826    0.1304347826    1.0
        0.1231884058    0.1231884058    0.1231884058    1.0
        0.1159420290    0.1159420290    0.1159420290    1.0
        0.1086956522    0.1086956522    0.1086956522    1.0
        0.1014492754    0.1014492754    0.1014492754    1.0
        0.0942028986    0.0942028986    0.0942028986    1.0
        0.0869565217    0.0869565217    0.0869565217    1.0
        0.0797101449    0.0797101449    0.0797101449    1.0
        0.0724637681    0.0724637681    0.0724637681    1.0
        0.0652173913    0.0652173913    0.0652173913    1.0
        0.0579710145    0.0579710145    0.0579710145    1.0
        0.0507246377    0.0507246377    0.0507246377    1.0
        0.0434782609    0.0434782609    0.0434782609    1.0
        0.0362318841    0.0362318841    0.0362318841    1.0
        0.0289855072    0.0289855072    0.0289855072    1.0
        0.0217391304    0.0217391304    0.0217391304    1.0
        0.0144927536    0.0144927536    0.0144927536    1.0
        0.0072463768    0.0072463768    0.0072463768    1.0
        0.0000000000    0.0000000000    0.0000000000    1.0
        0.0063291139    0.0063291139    0.0000000000    1.0
        0.0126582278    0.0126582278    0.0000000000    1.0
        0.0189873418    0.0189873418    0.0000000000    1.0
        0.0253164557    0.0253164557    0.0000000000    1.0
        0.0316455696    0.0316455696    0.0000000000    1.0
        0.0379746835    0.0379746835    0.0000000000    1.0
        0.0443037975    0.0443037975    0.0000000000    1.0
        0.0506329114    0.0506329114    0.0000000000    1.0
        0.0569620253    0.0569620253    0.0000000000    1.0
        0.0632911392    0.0632911392    0.0000000000    1.0
        0.0696202532    0.0696202532    0.0000000000    1.0
        0.0759493671    0.0759493671    0.0000000000    1.0
        0.0822784810    0.0822784810    0.0000000000    1.0
        0.0886075949    0.0886075949    0.0000000000    1.0
        0.0949367089    0.0949367089    0.0000000000    1.0
        0.1012658228    0.1012658228    0.0000000000    1.0
        0.1075949367    0.1075949367    0.0000000000    1.0
        0.1139240506    0.1139240506    0.0000000000    1.0
        0.1202531646    0.1202531646    0.0000000000    1.0
        0.1265822785    0.1265822785    0.0000000000    1.0
        0.1329113924    0.1329113924    0.0000000000    1.0
        0.1392405063    0.1392405063    0.0000000000    1.0
        0.1455696203    0.1455696203    0.0000000000    1.0
        0.1518987342    0.1518987342    0.0000000000    1.0
        0.1582278481    0.1582278481    0.0000000000    1.0
        0.1645569620    0.1645569620    0.0000000000    1.0
        0.1708860759    0.1708860759    0.0000000000    1.0
        0.1772151899    0.1772151899    0.0000000000    1.0
        0.1835443038    0.1835443038    0.0000000000    1.0
        0.1898734177    0.1898734177    0.0000000000    1.0
        0.1962025316    0.1962025316    0.0000000000    1.0
        0.2025316456    0.2025316456    0.0000000000    1.0
        0.2088607595    0.2088607595    0.0000000000    1.0
        0.2151898734    0.2151898734    0.0000000000    1.0
        0.2215189873    0.2215189873    0.0000000000    1.0
        0.2278481013    0.2278481013    0.0000000000    1.0
        0.2341772152    0.2341772152    0.0000000000    1.0
        0.2405063291    0.2405063291    0.0000000000    1.0
        0.2468354430    0.2468354430    0.0000000000    1.0
        0.2531645570    0.2531645570    0.0000000000    1.0
        0.2594936709    0.2594936709    0.0000000000    1.0
        0.2658227848    0.2658227848    0.0000000000    1.0
        0.2721518987    0.2721518987    0.0000000000    1.0
        0.2784810127    0.2784810127    0.0000000000    1.0
        0.2848101266    0.2848101266    0.0000000000    1.0
        0.2911392405    0.2911392405    0.0000000000    1.0
        0.2974683544    0.2974683544    0.0000000000    1.0
        0.3037974684    0.3037974684    0.0000000000    1.0
        0.3101265823    0.3101265823    0.0000000000    1.0
        0.3164556962    0.3164556962    0.0000000000    1.0
        0.3227848101    0.3227848101    0.0000000000    1.0
        0.3291139241    0.3291139241    0.0000000000    1.0
        0.3354430380    0.3354430380    0.0000000000    1.0
        0.3417721519    0.3417721519    0.0000000000    1.0
        0.3481012658    0.3481012658    0.0000000000    1.0
        0.3544303797    0.3544303797    0.0000000000    1.0
        0.3607594937    0.3607594937    0.0000000000    1.0
        0.3670886076    0.3670886076    0.0000000000    1.0
        0.3734177215    0.3734177215    0.0000000000    1.0
        0.3797468354    0.3797468354    0.0000000000    1.0
        0.3860759494    0.3860759494    0.0000000000    1.0
        0.3924050633    0.3924050633    0.0000000000    1.0
        0.3987341772    0.3987341772    0.0000000000    1.0
        0.4050632911    0.4050632911    0.0000000000    1.0
        0.4113924051    0.4113924051    0.0000000000    1.0
        0.4177215190    0.4177215190    0.0000000000    1.0
        0.4240506329    0.4240506329    0.0000000000    1.0
        0.4303797468    0.4303797468    0.0000000000    1.0
        0.4367088608    0.4367088608    0.0000000000    1.0
        0.4430379747    0.4430379747    0.0000000000    1.0
        0.4493670886    0.4493670886    0.0000000000    1.0
        0.4556962025    0.4556962025    0.0000000000    1.0
        0.4620253165    0.4620253165    0.0000000000    1.0
        0.4683544304    0.4683544304    0.0000000000    1.0
        0.4746835443    0.4746835443    0.0000000000    1.0
        0.4810126582    0.4810126582    0.0000000000    1.0
        0.4873417722    0.4873417722    0.0000000000    1.0
        0.4936708861    0.4936708861    0.0000000000    1.0
        0.5000000000    0.5000000000    0.0000000000    1.0
        0.5062500000    0.5000000000    0.0062500000    1.0
        0.5125000000    0.5000000000    0.0125000000    1.0
        0.5187500000    0.5000000000    0.0187500000    1.0
        0.5250000000    0.5000000000    0.0250000000    1.0
        0.5312500000    0.5000000000    0.0312500000    1.0
        0.5375000000    0.5000000000    0.0375000000    1.0
        0.5437500000    0.5000000000    0.0437500000    1.0
        0.5500000000    0.5000000000    0.0500000000    1.0
        0.5562500000    0.5000000000    0.0562500000    1.0
        0.5625000000    0.5000000000    0.0625000000    1.0
        0.5687500000    0.5000000000    0.0687500000    1.0
        0.5750000000    0.5000000000    0.0750000000    1.0
        0.5812500000    0.5000000000    0.0812500000    1.0
        0.5875000000    0.5000000000    0.0875000000    1.0
        0.5937500000    0.5000000000    0.0937500000    1.0
        0.6000000000    0.5000000000    0.1000000000    1.0
        0.6062500000    0.5000000000    0.1062500000    1.0
        0.6125000000    0.5000000000    0.1125000000    1.0
        0.6187500000    0.5000000000    0.1187500000    1.0
        0.6250000000    0.5000000000    0.1250000000    1.0
        0.6312500000    0.5000000000    0.1312500000    1.0
        0.6375000000    0.5000000000    0.1375000000    1.0
        0.6437500000    0.5000000000    0.1437500000    1.0
        0.6500000000    0.5000000000    0.1500000000    1.0
        0.6562500000    0.5000000000    0.1562500000    1.0
        0.6625000000    0.5000000000    0.1625000000    1.0
        0.6687500000    0.5000000000    0.1687500000    1.0
        0.6750000000    0.5000000000    0.1750000000    1.0
        0.6812500000    0.5000000000    0.1812500000    1.0
        0.6875000000    0.5000000000    0.1875000000    1.0
        0.6937500000    0.5000000000    0.1937500000    1.0
        0.7000000000    0.5000000000    0.2000000000    1.0
        0.7062500000    0.5000000000    0.2062500000    1.0
        0.7125000000    0.5000000000    0.2125000000    1.0
        0.7187500000    0.5000000000    0.2187500000    1.0
        0.7250000000    0.5000000000    0.2250000000    1.0
        0.7312500000    0.5000000000    0.2312500000    1.0
        0.7375000000    0.5000000000    0.2375000000    1.0
        0.7437500000    0.5000000000    0.2437500000    1.0
        0.7500000000    0.5000000000    0.2500000000    1.0
        0.7500000000    0.4955357143    0.2544642857    1.0
        0.7500000000    0.4910714286    0.2589285714    1.0
        0.7500000000    0.4866071429    0.2633928571    1.0
        0.7500000000    0.4821428571    0.2678571429    1.0
        0.7500000000    0.4776785714    0.2723214286    1.0
        0.7500000000    0.4732142857    0.2767857143    1.0
        0.7500000000    0.4687500000    0.2812500000    1.0
        0.7500000000    0.4642857143    0.2857142857    1.0
        0.7500000000    0.4598214286    0.2901785714    1.0
        0.7500000000    0.4553571429    0.2946428571    1.0
        0.7500000000    0.4508928571    0.2991071429    1.0
        0.7500000000    0.4464285714    0.3035714286    1.0
        0.7500000000    0.4419642857    0.3080357143    1.0
        0.7500000000    0.4375000000    0.3125000000    1.0
        0.7500000000    0.4330357143    0.3169642857    1.0
        0.7500000000    0.4285714286    0.3214285714    1.0
        0.7500000000    0.4241071429    0.3258928571    1.0
        0.7500000000    0.4196428571    0.3303571429    1.0
        0.7500000000    0.4151785714    0.3348214286    1.0
        0.7500000000    0.4107142857    0.3392857143    1.0
        0.7500000000    0.4062500000    0.3437500000    1.0
        0.7500000000    0.4017857143    0.3482142857    1.0
        0.7500000000    0.3973214286    0.3526785714    1.0
        0.7500000000    0.3928571429    0.3571428571    1.0
        0.7500000000    0.3883928571    0.3616071429    1.0
        0.7500000000    0.3839285714    0.3660714286    1.0
        0.7500000000    0.3794642857    0.3705357143    1.0
        0.7500000000    0.3750000000    0.3750000000    1.0
        0.7410714286    0.3705357143    0.3705357143    1.0
        0.7321428571    0.3660714286    0.3660714286    1.0
        0.7232142857    0.3616071429    0.3616071429    1.0
        0.7142857143    0.3571428571    0.3571428571    1.0
        0.7053571429    0.3526785714    0.3526785714    1.0
        0.6964285714    0.3482142857    0.3482142857    1.0
        0.6875000000    0.3437500000    0.3437500000    1.0
        0.6785714286    0.3392857143    0.3392857143    1.0
        0.6696428571    0.3348214286    0.3348214286    1.0
        0.6607142857    0.3303571429    0.3303571429    1.0
        0.6517857143    0.3258928571    0.3258928571    1.0
        0.6428571429    0.3214285714    0.3214285714    1.0
        0.6339285714    0.3169642857    0.3169642857    1.0
        0.6250000000    0.3125000000    0.3125000000    1.0
        0.6160714286    0.3080357143    0.3080357143    1.0
        0.6071428571    0.3035714286    0.3035714286    1.0
        0.5982142857    0.2991071429    0.2991071429    1.0
        0.5892857143    0.2946428571    0.2946428571    1.0
        0.5803571429    0.2901785714    0.2901785714    1.0
        0.5714285714    0.2857142857    0.2857142857    1.0
        0.5625000000    0.2812500000    0.2812500000    1.0
        0.5535714286    0.2767857143    0.2767857143    1.0
        0.5446428571    0.2723214286    0.2723214286    1.0
        0.5357142857    0.2678571429    0.2678571429    1.0
        0.5267857143    0.2633928571    0.2633928571    1.0
        0.5178571429    0.2589285714    0.2589285714    1.0
        0.5089285714    0.2544642857    0.2544642857    1.0
        0.5000000000    0.2500000000    0.2500000000    1.0
        0.4910714286    0.2455357143    0.2455357143    1.0
        0.4821428571    0.2410714286    0.2410714286    1.0
        0.4732142857    0.2366071429    0.2366071429    1.0
        0.4642857143    0.2321428571    0.2321428571    1.0
        0.4553571429    0.2276785714    0.2276785714    1.0
        0.4464285714    0.2232142857    0.2232142857    1.0
        0.4375000000    0.2187500000    0.2187500000    1.0
        0.4285714286    0.2142857143    0.2142857143    1.0
        0.4196428571    0.2098214286    0.2098214286    1.0
        0.4107142857    0.2053571429    0.2053571429    1.0
        0.4017857143    0.2008928571    0.2008928571    1.0
        0.3928571429    0.1964285714    0.1964285714    1.0
        0.3839285714    0.1919642857    0.1919642857    1.0
        0.3750000000    0.1875000000    0.1875000000    1.0
        0.3660714286    0.1830357143    0.1830357143    1.0
        0.3571428571    0.1785714286    0.1785714286    1.0
        0.3482142857    0.1741071429    0.1741071429    1.0
        0.3392857143    0.1696428571    0.1696428571    1.0
        0.3303571429    0.1651785714    0.1651785714    1.0
        0.3214285714    0.1607142857    0.1607142857    1.0
        0.3125000000    0.1562500000    0.1562500000    1.0
        0.3035714286    0.1517857143    0.1517857143    1.0
        0.2946428571    0.1473214286    0.1473214286    1.0
        0.2857142857    0.1428571429    0.1428571429    1.0
        0.2767857143    0.1383928571    0.1383928571    1.0
        0.2678571429    0.1339285714    0.1339285714    1.0
        0.2589285714    0.1294642857    0.1294642857    1.0
        0.2500000000    0.1250000000    0.1250000000    1.0
        0.2410714286    0.1205357143    0.1205357143    1.0
        0.2321428571    0.1160714286    0.1160714286    1.0
        0.2232142857    0.1116071429    0.1116071429    1.0
        0.2142857143    0.1071428571    0.1071428571    1.0
        0.2053571429    0.1026785714    0.1026785714    1.0
        0.1964285714    0.0982142857    0.0982142857    1.0
        0.1875000000    0.0937500000    0.0937500000    1.0
        0.1785714286    0.0892857143    0.0892857143    1.0
        0.1696428571    0.0848214286    0.0848214286    1.0
        0.1607142857    0.0803571429    0.0803571429    1.0
        0.1517857143    0.0758928571    0.0758928571    1.0
        0.1428571429    0.0714285714    0.0714285714    1.0
        0.1339285714    0.0669642857    0.0669642857    1.0
        0.1250000000    0.0625000000    0.0625000000    1.0
        0.1160714286    0.0580357143    0.0580357143    1.0
        0.1071428571    0.0535714286    0.0535714286    1.0
        0.0982142857    0.0491071429    0.0491071429    1.0
        0.0892857143    0.0446428571    0.0446428571    1.0
        0.0803571429    0.0401785714    0.0401785714    1.0
        0.0714285714    0.0357142857    0.0357142857    1.0
        0.0625000000    0.0312500000    0.0312500000    1.0
        0.0535714286    0.0267857143    0.0267857143    1.0
        0.0446428571    0.0223214286    0.0223214286    1.0
        0.0357142857    0.0178571429    0.0178571429    1.0
        0.0267857143    0.0133928571    0.0133928571    1.0
        0.0178571429    0.0089285714    0.0089285714    1.0
        0.0089285714    0.0044642857    0.0044642857    1.0
        0.0000000000    0.0000000000    0.0000000000    1.0
