&inputpp
   outdir = 'temp/'
   prefix = 'si'
   seedname = 'si'
   write_mmn = .true.
   write_amn = .true.
   write_dmn = .true.
/
